Route #1: 0 6 43 33 51 0
Route #2: 0 42 41 56 23 16 0
Route #3: 0 44 32 9 0
Route #4: 0 40 50 18 3 0
Route #5: 0 39 31 55 25 0
Route #6: 0 17 12 58 26 0
Route #7: 0 46 34 4 0
Route #8: 0 52 27 29 45 0
Route #9: 0 48 47 36 21 0
Route #10: 0 30 28 2 0
Route #11: 0 22 1 49 24 0
Route #12: 0 10 38 0
Route #13: 0 11 14 0
Route #14: 0 19 59 54 13 0
Route #15: 0 5 37 20 15 57 0
Route #16: 0 8 35 53 7 0
Cost 101079:
